ISTART=0
ICHARG=2

PREC=Normal
ENCUT=400

ALGO=fast
EDIFF=1.0E-6

LCHARG=.FALSE.
LWAVE=.FALSE.

ISPIN=1
NCORE=1
ISMEAR=-5

IBRION=2
ISIF=1
NSW=20

# GPU-change
LREAL=.TRUE.
